WARNING: for repeatability, setting FPU to use double precision
============================[ Problem Statistics ]=============================
|                                                                             |
|  Number of variables:         36736                                         |
|  Number of clauses:          243458                                         |
|  Parse time:                   0.05 s                                       |
|                                                                             |
c ============================[ Search Statistics ]==============================
c | Conflicts |          ORIGINAL         |          LEARNT          | Progress |
c |           |    Vars  Clauses Literals |    Limit  Clauses Lit/Cl |          |
c ===============================================================================
c Switched to VSIDS.
c Switched to LRB.
c Switched to VSIDS.
c Switched to LRB.
c Switched to VSIDS.
c Switched to LRB.
c Switched to VSIDS.
c Switched to LRB.
c Switched to VSIDS.
c Switched to LRB.
c Switched to VSIDS.
c Switched to LRB.
c Switched to VSIDS.
c Switched to LRB.
c Switched to VSIDS.
c Switched to LRB.
c Switched to VSIDS.
c Switched to LRB.
c Switched to VSIDS.
c Switched to LRB.
c Switched to VSIDS.
c Switched to LRB.
c Switched to VSIDS.
c Switched to LRB.
c Switched to VSIDS.
c Switched to LRB.
c Switched to VSIDS.
c Switched to LRB.
c Switched to VSIDS.
c Switched to LRB.
c Switched to VSIDS.
c Switched to LRB.
c Switched to VSIDS.
c Switched to LRB.
c Switched to VSIDS.
c ===============================================================================
restarts                  : 52118
conflicts                 : 10076100       (2835 /sec)
decisions                 : 43680416       (0.00 % random) (12291 /sec)
propagations              : 9137533928     (2571204 /sec)
conflict literals         : 1005851666     (20.28 % deleted)

conflicts w/ DIP found    : 7543687        (74.87 % of conflicts)
conflicts w/ dangerous DIP: 0              (0.00 % of conflicts)
conflicts w/ DIP-learning : 2092           (0.02 % of conflicts)
decisions on ext vars     : 54123          (0.12 % of decisions)
total ext vars            : 827         
tried delete ext vars     : 6           
deleted ext vars          : 6           
max ext vars              : 821         

Memory used               : 540.00 MB
CPU time                  : 3553.8 s
DIP computation time      : 93.2067 s (2.62 % of total time)
ER_sel time               : 14.9052 s
ER_add time               : 0.00865 s
ER_delC time              : 0 s
ER_delV time              : 0.001198 s
ER_sub time               : 17.6949 s
ER_stat time              : 0 s

INDETERMINATE
